benchmarks_vrp/CMT3/fixed_c/CMT3_4.vrp
NAME: CMT3_4
TYPE: CVRP
COMMENT: 826.14 - Cluster Nr.4
DIMENSION: 15
CAPACITY: 200
EDGE_WEIGHT_TYPE: EUC_2D
NODE_COORD_TYPE: TWOD_COORDS
NODE_COORD_SECTION: 
1 64 42
9 56 37
8 53 52
12 49 42
4 56 39
2 61 52
14 65 35
6 41 37
7 57 29
3 35 35
13 50 35
11 47 47
5 53 43
10 55 45
15 57 48
DEPOT_SECTION: 
3
-1
DEMAND_SECTION: 
6 16
13 19
3 0
10 13
14 3
8 11
1 9
9 6
15 23
11 13
12 13
2 3
4 36
7 18
5 14
EOF
