benchmarks_vrp/CMT3/fixed_c/CMT3_4.tour
NAME: CMT3_4 solution
TYPE: TOUR
TOUR_SECTION:
3 6 12 11 8 2 15 10 5 4 9 1 14 7 13 -1
-1
EOF